% seed = 3937158

mint = 70;
% maxt = 239;

nActs = 42;
dur = [0,10,10,3,3,8,3,7,10,1,9,10,5,9,9,8,9,7,9,5,2,5,2,10,7,10,5,2,4,10,9,1,6,5,4,2,5,6,6,1,2,0];

nSkills = 4;
sreq = [| 0,0,0,0,
	| 5,3,0,0,
	| 4,0,4,0,
	| 0,6,0,7,
	| 0,5,6,0,
	| 0,0,4,4,
	| 1,0,5,0,
	| 5,0,0,3,
	| 7,7,0,0,
	| 7,7,0,0,
	| 5,0,3,0,
	| 2,0,0,3,
	| 4,4,0,0,
	| 7,0,2,0,
	| 0,3,2,0,
	| 4,0,6,0,
	| 4,2,0,0,
	| 7,0,2,0,
	| 0,0,4,5,
	| 0,4,4,0,
	| 4,0,2,0,
	| 4,0,0,5,
	| 0,4,0,3,
	| 0,4,4,0,
	| 0,5,0,3,
	| 2,0,3,0,
	| 0,2,4,0,
	| 6,2,0,0,
	| 4,0,0,5,
	| 0,3,6,0,
	| 4,5,0,0,
	| 3,0,4,0,
	| 0,0,3,4,
	| 0,0,5,3,
	| 2,2,0,0,
	| 0,2,0,3,
	| 3,0,6,0,
	| 0,0,3,5,
	| 4,0,0,5,
	| 0,3,0,1,
	| 0,5,3,0,
	| 0,0,0,0, |];

nResources = 30;
mastery = [| true,false,false,false,
	| false,false,true,false,
	| false,false,false,true,
	| false,false,true,false,
	| true,true,false,true,
	| false,true,true,true,
	| false,false,false,true,
	| false,true,true,false,
	| false,false,true,true,
	| false,false,true,true,
	| false,true,false,false,
	| false,true,true,false,
	| true,false,true,true,
	| false,true,true,true,
	| true,true,false,true,
	| true,false,false,false,
	| true,false,false,false,
	| true,true,true,false,
	| false,false,true,true,
	| true,false,true,false,
	| true,true,true,false,
	| false,false,false,true,
	| false,true,false,false,
	| true,true,false,true,
	| false,false,true,true,
	| false,false,true,false,
	| true,false,true,true,
	| true,false,false,false,
	| true,false,false,true,
	| false,true,true,false, |];

nPrecs = 73;
pred = [1,1,1,2,2,2,3,4,4,5,5,5,6,6,6,7,7,8,8,9,10,10,10,11,11,12,12,12,13,13,14,14,14,15,16,16,16,17,17,17,18,18,19,19,20,21,21,22,23,24,24,25,25,26,26,27,28,29,30,31,31,32,32,33,34,35,36,37,37,38,39,40,41];
succ = [2,3,4,10,5,8,6,25,13,17,14,7,25,11,12,9,13,18,16,36,29,23,15,27,13,34,21,24,28,38,26,19,28,32,33,37,32,20,30,31,19,22,29,37,38,22,39,32,34,29,30,35,39,41,37,30,36,35,33,33,36,41,40,34,35,38,41,39,40,40,42,42,42];

nUnrels = 502;
unpred = [2,2,2,2,2,2,2,2,2,3,3,3,3,3,3,3,3,3,3,3,3,3,3,3,3,3,4,4,4,4,4,4,4,4,4,4,4,4,4,4,4,4,4,4,4,4,4,4,4,4,4,4,4,4,5,5,5,5,5,5,5,5,5,5,5,5,5,5,5,6,6,6,6,6,6,6,6,6,6,6,6,6,6,6,7,7,7,7,7,7,7,7,7,7,7,7,7,7,7,7,7,7,7,7,7,7,7,7,7,7,7,8,8,8,8,8,8,8,8,8,8,8,8,8,8,8,8,8,8,8,9,9,9,9,9,9,9,9,9,9,9,9,9,9,9,9,9,9,9,9,9,9,9,9,9,9,9,9,9,9,10,10,10,10,10,10,10,10,10,10,10,10,10,10,10,10,10,10,10,10,10,10,11,11,11,11,11,11,11,11,11,11,11,11,11,11,11,11,11,11,11,12,12,12,12,12,12,12,12,12,12,12,12,12,12,12,12,13,13,13,13,13,13,13,13,13,13,13,13,13,13,13,13,13,13,13,13,13,13,13,14,14,14,14,14,14,14,14,14,14,14,14,14,14,14,14,15,15,15,15,15,15,15,15,15,15,15,15,15,15,15,15,15,15,15,15,15,15,15,16,16,16,16,16,16,16,16,16,16,16,16,16,16,16,16,17,17,17,17,17,17,17,17,17,17,17,17,17,17,18,18,18,18,18,18,18,18,18,18,18,18,18,19,19,19,19,19,19,19,19,19,19,19,19,19,19,19,19,20,20,20,20,20,20,20,20,20,20,20,20,20,20,20,20,20,20,20,21,21,21,21,21,21,21,21,21,21,21,21,21,21,21,22,22,22,22,22,22,22,22,22,22,22,22,22,22,22,22,23,23,23,23,23,23,23,23,23,23,23,23,23,23,24,24,24,24,24,24,24,24,24,24,25,25,25,25,25,25,25,25,25,25,25,25,26,26,26,26,26,26,26,26,26,26,26,27,27,27,27,27,27,27,27,28,28,28,28,28,28,28,28,28,28,28,29,29,29,29,29,29,29,29,29,30,30,30,30,30,30,31,31,31,32,32,32,32,32,32,32,33,33,33,33,34,34,34,34,35,35,35,35,36,36,36,36,37,37,38,38,39,39,40];
unsucc = [3,4,6,11,12,21,24,25,27,4,5,7,8,9,10,14,15,16,17,18,19,20,23,26,31,37,5,6,7,8,9,10,11,12,14,15,16,17,18,19,20,21,22,23,24,26,27,29,30,31,32,33,34,37,6,8,10,11,12,15,16,18,21,22,23,24,25,27,32,7,8,9,10,14,15,16,17,18,19,20,23,26,31,37,8,10,11,12,14,15,16,17,18,19,20,21,22,23,24,25,26,27,29,30,31,32,33,34,35,37,39,9,10,11,12,13,14,15,17,20,21,23,24,25,26,27,28,30,31,36,10,11,12,13,14,15,16,17,18,19,20,21,22,23,24,25,26,27,28,29,30,31,32,33,34,35,37,38,39,40,11,12,13,14,16,17,18,19,20,21,22,24,25,26,27,28,30,31,33,36,37,39,12,14,15,16,17,18,19,20,21,22,23,24,25,26,29,31,32,37,39,13,14,15,16,17,18,19,20,23,25,26,27,28,31,36,37,14,15,16,17,18,19,20,21,22,23,24,25,26,27,29,30,31,32,33,34,35,37,39,15,16,17,18,20,21,22,23,24,25,27,30,31,32,33,34,16,17,18,19,20,21,22,23,24,25,26,27,28,29,30,31,33,34,35,36,37,38,39,17,18,19,20,21,22,23,24,25,26,27,28,29,30,31,36,18,19,21,22,23,24,25,26,27,28,29,32,37,39,20,21,23,24,25,26,27,28,30,31,33,34,36,20,21,22,23,24,25,26,27,28,30,31,32,33,34,36,41,21,22,23,24,25,26,27,28,29,30,31,32,33,34,35,36,37,39,41,23,24,25,26,27,28,29,30,31,33,34,35,36,37,38,23,24,25,26,27,28,29,30,31,33,34,35,36,37,38,39,24,25,26,27,28,29,30,31,32,33,36,37,39,41,25,26,27,28,31,32,36,37,39,41,26,27,28,29,30,31,32,33,34,36,37,41,27,28,29,30,31,32,33,34,35,36,38,28,29,31,32,36,37,39,41,29,30,31,32,33,34,35,37,38,39,40,30,31,32,33,34,36,37,39,41,31,32,36,37,39,41,32,37,39,33,34,35,36,37,38,39,36,37,39,41,36,37,39,41,36,37,39,41,37,38,39,40,38,41,39,41,40,41,41];

USEFUL_RES = [{},
	{1,5,6,8,11,12,13,14,15,16,17,18,20,21,23,24,27,28,29,30},
	{1,2,4,5,6,8,9,10,12,13,14,15,16,17,18,19,20,21,24,25,26,27,28,29,30},
	{3,5,6,7,8,9,10,11,12,13,14,15,18,19,21,22,23,24,25,27,29,30},
	{2,4,5,6,8,9,10,11,12,13,14,15,18,19,20,21,23,24,25,26,27,30},
	{2,3,4,5,6,7,8,9,10,12,13,14,15,18,19,20,21,22,24,25,26,27,29,30},
	{1,2,4,5,6,8,9,10,12,13,14,15,16,17,18,19,20,21,24,25,26,27,28,29,30},
	{1,3,5,6,7,9,10,13,14,15,16,17,18,19,20,21,22,24,25,27,28,29},
	{1,5,6,8,11,12,13,14,15,16,17,18,20,21,23,24,27,28,29,30},
	{1,5,6,8,11,12,13,14,15,16,17,18,20,21,23,24,27,28,29,30},
	{1,2,4,5,6,8,9,10,12,13,14,15,16,17,18,19,20,21,24,25,26,27,28,29,30},
	{1,3,5,6,7,9,10,13,14,15,16,17,18,19,20,21,22,24,25,27,28,29},
	{1,5,6,8,11,12,13,14,15,16,17,18,20,21,23,24,27,28,29,30},
	{1,2,4,5,6,8,9,10,12,13,14,15,16,17,18,19,20,21,24,25,26,27,28,29,30},
	{2,4,5,6,8,9,10,11,12,13,14,15,18,19,20,21,23,24,25,26,27,30},
	{1,2,4,5,6,8,9,10,12,13,14,15,16,17,18,19,20,21,24,25,26,27,28,29,30},
	{1,5,6,8,11,12,13,14,15,16,17,18,20,21,23,24,27,28,29,30},
	{1,2,4,5,6,8,9,10,12,13,14,15,16,17,18,19,20,21,24,25,26,27,28,29,30},
	{2,3,4,5,6,7,8,9,10,12,13,14,15,18,19,20,21,22,24,25,26,27,29,30},
	{2,4,5,6,8,9,10,11,12,13,14,15,18,19,20,21,23,24,25,26,27,30},
	{1,2,4,5,6,8,9,10,12,13,14,15,16,17,18,19,20,21,24,25,26,27,28,29,30},
	{1,3,5,6,7,9,10,13,14,15,16,17,18,19,20,21,22,24,25,27,28,29},
	{3,5,6,7,8,9,10,11,12,13,14,15,18,19,21,22,23,24,25,27,29,30},
	{2,4,5,6,8,9,10,11,12,13,14,15,18,19,20,21,23,24,25,26,27,30},
	{3,5,6,7,8,9,10,11,12,13,14,15,18,19,21,22,23,24,25,27,29,30},
	{1,2,4,5,6,8,9,10,12,13,14,15,16,17,18,19,20,21,24,25,26,27,28,29,30},
	{2,4,5,6,8,9,10,11,12,13,14,15,18,19,20,21,23,24,25,26,27,30},
	{1,5,6,8,11,12,13,14,15,16,17,18,20,21,23,24,27,28,29,30},
	{1,3,5,6,7,9,10,13,14,15,16,17,18,19,20,21,22,24,25,27,28,29},
	{2,4,5,6,8,9,10,11,12,13,14,15,18,19,20,21,23,24,25,26,27,30},
	{1,5,6,8,11,12,13,14,15,16,17,18,20,21,23,24,27,28,29,30},
	{1,2,4,5,6,8,9,10,12,13,14,15,16,17,18,19,20,21,24,25,26,27,28,29,30},
	{2,3,4,5,6,7,8,9,10,12,13,14,15,18,19,20,21,22,24,25,26,27,29,30},
	{2,3,4,5,6,7,8,9,10,12,13,14,15,18,19,20,21,22,24,25,26,27,29,30},
	{1,5,6,8,11,12,13,14,15,16,17,18,20,21,23,24,27,28,29,30},
	{3,5,6,7,8,9,10,11,12,13,14,15,18,19,21,22,23,24,25,27,29,30},
	{1,2,4,5,6,8,9,10,12,13,14,15,16,17,18,19,20,21,24,25,26,27,28,29,30},
	{2,3,4,5,6,7,8,9,10,12,13,14,15,18,19,20,21,22,24,25,26,27,29,30},
	{1,3,5,6,7,9,10,13,14,15,16,17,18,19,20,21,22,24,25,27,28,29},
	{3,5,6,7,8,9,10,11,12,13,14,15,18,19,21,22,23,24,25,27,29,30},
	{2,4,5,6,8,9,10,11,12,13,14,15,18,19,20,21,23,24,25,26,27,30},
	{}];

POTENTIAL_ACT = [{2,3,7,8,9,10,11,12,13,14,16,17,18,21,22,26,28,29,31,32,35,37,39},
	{3,5,6,7,11,14,15,16,18,19,20,21,24,26,27,30,32,33,34,37,38,41},
	{4,6,8,12,19,22,23,25,29,33,34,36,38,39,40},
	{3,5,6,7,11,14,15,16,18,19,20,21,24,26,27,30,32,33,34,37,38,41},
	{2,3,4,5,6,7,8,9,10,11,12,13,14,15,16,17,18,19,20,21,22,23,24,25,26,27,28,29,30,31,32,33,34,35,36,37,38,39,40,41},
	{2,3,4,5,6,7,8,9,10,11,12,13,14,15,16,17,18,19,20,21,22,23,24,25,26,27,28,29,30,31,32,33,34,35,36,37,38,39,40,41},
	{4,6,8,12,19,22,23,25,29,33,34,36,38,39,40},
	{2,3,4,5,6,7,9,10,11,13,14,15,16,17,18,19,20,21,23,24,25,26,27,28,30,31,32,33,34,35,36,37,38,40,41},
	{3,4,5,6,7,8,11,12,14,15,16,18,19,20,21,22,23,24,25,26,27,29,30,32,33,34,36,37,38,39,40,41},
	{3,4,5,6,7,8,11,12,14,15,16,18,19,20,21,22,23,24,25,26,27,29,30,32,33,34,36,37,38,39,40,41},
	{2,4,5,9,10,13,15,17,20,23,24,25,27,28,30,31,35,36,40,41},
	{2,3,4,5,6,7,9,10,11,13,14,15,16,17,18,19,20,21,23,24,25,26,27,28,30,31,32,33,34,35,36,37,38,40,41},
	{2,3,4,5,6,7,8,9,10,11,12,13,14,15,16,17,18,19,20,21,22,23,24,25,26,27,28,29,30,31,32,33,34,35,36,37,38,39,40,41},
	{2,3,4,5,6,7,8,9,10,11,12,13,14,15,16,17,18,19,20,21,22,23,24,25,26,27,28,29,30,31,32,33,34,35,36,37,38,39,40,41},
	{2,3,4,5,6,7,8,9,10,11,12,13,14,15,16,17,18,19,20,21,22,23,24,25,26,27,28,29,30,31,32,33,34,35,36,37,38,39,40,41},
	{2,3,7,8,9,10,11,12,13,14,16,17,18,21,22,26,28,29,31,32,35,37,39},
	{2,3,7,8,9,10,11,12,13,14,16,17,18,21,22,26,28,29,31,32,35,37,39},
	{2,3,4,5,6,7,8,9,10,11,12,13,14,15,16,17,18,19,20,21,22,23,24,25,26,27,28,29,30,31,32,33,34,35,36,37,38,39,40,41},
	{3,4,5,6,7,8,11,12,14,15,16,18,19,20,21,22,23,24,25,26,27,29,30,32,33,34,36,37,38,39,40,41},
	{2,3,5,6,7,8,9,10,11,12,13,14,15,16,17,18,19,20,21,22,24,26,27,28,29,30,31,32,33,34,35,37,38,39,41},
	{2,3,4,5,6,7,8,9,10,11,12,13,14,15,16,17,18,19,20,21,22,23,24,25,26,27,28,29,30,31,32,33,34,35,36,37,38,39,40,41},
	{4,6,8,12,19,22,23,25,29,33,34,36,38,39,40},
	{2,4,5,9,10,13,15,17,20,23,24,25,27,28,30,31,35,36,40,41},
	{2,3,4,5,6,7,8,9,10,11,12,13,14,15,16,17,18,19,20,21,22,23,24,25,26,27,28,29,30,31,32,33,34,35,36,37,38,39,40,41},
	{3,4,5,6,7,8,11,12,14,15,16,18,19,20,21,22,23,24,25,26,27,29,30,32,33,34,36,37,38,39,40,41},
	{3,5,6,7,11,14,15,16,18,19,20,21,24,26,27,30,32,33,34,37,38,41},
	{2,3,4,5,6,7,8,9,10,11,12,13,14,15,16,17,18,19,20,21,22,23,24,25,26,27,28,29,30,31,32,33,34,35,36,37,38,39,40,41},
	{2,3,7,8,9,10,11,12,13,14,16,17,18,21,22,26,28,29,31,32,35,37,39},
	{2,3,4,6,7,8,9,10,11,12,13,14,16,17,18,19,21,22,23,25,26,28,29,31,32,33,34,35,36,37,38,39,40},
	{2,3,4,5,6,7,9,10,11,13,14,15,16,17,18,19,20,21,23,24,25,26,27,28,30,31,32,33,34,35,36,37,38,40,41}];
